
--- Job sportsSchedule1.gms Start 07/04/21 16:39:17 34.3.0 rac355f3 WEX-WEI x86 64bit/MS Windows
--- Applying:
    C:\GAMS\34\gmsprmNT.txt
    C:\Users\Erwin\Documents\GAMS\gamsconfig.yaml
--- GAMS Parameters defined
    Input D:\projects\blog\sportsSchedule\sportsSchedule1.gms
    PageWidth 120
    PageSize 0
    PageContr 3
    Action CE
    ScrDir D:\projects\blog\sportsSchedule\225i\
    SysDir C:\GAMS\34\
    WorkDir D:\projects\blog\sportsSchedule\
    LogOption 3
    DFormat 0
    TFormat 0
    ErrorLog 99
    IDE 1
Licensee: Eval License                                   S201210/0001CO-GEN
          Amsterdam Optimization Modeling Group,                     DCE378
          C:\Users\Erwin\Documents\GAMS\gamslice.txt
          Evaluation license: Not for commercial or production use
GAMS 34.3.0   Copyright (C) 1987-2021 GAMS Development. All rights reserved
--- Starting compilation
--- sportsSchedule1.gms(105) 3 Mb
--- Starting execution: elapsed 0:00:00.033
--- sportsSchedule1.gms(103) 5 Mb
--- Generating MIP model sched
--- sportsSchedule1.gms(104) 12 Mb
---   13,877 rows  14,365 columns  56,505 non-zeroes
---   896 discrete-columns
--- Executing CPLEX (Solvelink=2): elapsed 0:00:00.365

IBM ILOG CPLEX   34.3.0 rac355f3 Released Feb 25, 2021 WEI x86 64bit/MS Window

--- GAMS/Cplex Link licensed for continuous and discrete problems.
--- Space for names approximately 1.25 Mb
--- Use option 'names no' to turn use of names off
--- GMO memory 6.23 Mb (peak 6.34 Mb)
--- Dictionary memory 0.00 Mb
--- Cplex 20.1.0.0 link memory 0.43 Mb (peak 2.69 Mb)
--- Starting Cplex

Version identifier: 20.1.0.0 | 2020-11-10 | 9bedb6d68
CPXPARAM_Advance                                 0
CPXPARAM_Threads                                 8
CPXPARAM_Parallel                                1
CPXPARAM_MIP_Display                             4
CPXPARAM_TimeLimit                               1000
CPXPARAM_MIP_Tolerances_AbsMIPGap                0
CPXPARAM_MIP_Tolerances_MIPGap                   0
Generic callback                                 0x50
Tried aggregator 1 time.
MIP Presolve eliminated 0 rows and 1 columns.
MIP Presolve modified 896 coefficients.
Reduced MIP has 13876 rows, 14364 columns, and 56364 nonzeros.
Reduced MIP has 896 binaries, 0 generals, 0 SOSs, and 0 indicators.
Presolve time = 0.38 sec. (31.75 ticks)
Probing time = 0.02 sec. (2.32 ticks)
Cover probing fixed 0 vars, tightened 56 bounds.
Tried aggregator 1 time.
Detecting symmetries...
MIP Presolve added 126 rows and 0 columns.
Reduced MIP has 14002 rows, 14364 columns, and 56616 nonzeros.
Reduced MIP has 896 binaries, 0 generals, 0 SOSs, and 0 indicators.
Presolve time = 0.80 sec. (128.84 ticks)
Probing fixed 0 vars, tightened 27 bounds.
Probing time = 0.03 sec. (2.62 ticks)
Clique table members: 112.
MIP emphasis: balance optimality and feasibility.
MIP search method: dynamic search.
Parallel mode: deterministic, using up to 8 threads.
Parallel mode: deterministic, using up to 2 threads for parallel tasks at root LP.
Parallel mode: deterministic, using up to 6 threads for concurrent optimization:
 * Starting dual Simplex on 1 thread...
 * Starting Barrier on 4 threads...
 * Starting primal Simplex on 1 thread...
Initializing dual steep norms . . .

Iteration log . . .
Iteration:     1   Dual objective     =             0.000000
Perturbation started.
Iteration:   101   Dual objective     =             0.000000
Iteration:   366   Dual objective     =             0.000019
Iteration:   555   Dual objective     =             0.000027
Iteration:   775   Dual objective     =             0.000032
Removing perturbation.

Dual simplex solved model.

Root relaxation solution time = 0.39 sec. (62.27 ticks)

        Nodes                                         Cuts/
   Node  Left     Objective  IInf  Best Integer    Best Bound    ItCnt     Gap

      0     0        0.0000   360                      0.0000      784         
      0     0        0.7000   228                    Cuts: 17     2182         
      0     0        0.7000   400                   Cuts: 158     4046         
      0     0        0.7000   301                    Cuts: 27     5350         
      0     0        0.7000   413                   Cuts: 126     6352         
*     0+    0                           11.1000        0.7000            93.69%
Found incumbent of value 11.100000 after 87.97 sec. (14736.56 ticks)
Detecting symmetries...
      0     2        0.7000   148       11.1000        0.7000     6352   93.69%
Elapsed time = 88.49 sec. (14786.07 ticks, tree = 0.02 MB, solutions = 1)
      2     4        0.7000   229       11.1000        0.7000     7322   93.69%
      6     8        0.7000   294       11.1000        0.7000     8710   93.69%
                                                   Covers: 17                  
     13    15        0.7000   322       11.1000        0.7000    10837   93.69%
                                                   Covers: 27                  
     36    18        0.7000   360       11.1000        0.7000    12278   93.69%
                                                   Covers: 17                  
     67    33        0.7000   355       11.1000        0.7000    16832   93.69%
                                                    Covers: 7                  
    103    76        0.7000   239       11.1000        0.7000    25160   93.69%
    149   108        0.7000   233       11.1000        0.7000    30782   93.69%
    200   137        0.7000   314       11.1000        0.7000    36299   93.69%
    238   221        0.7000   280       11.1000        0.7000    48143   93.69%
    383   354        0.7000   202       11.1000        0.7000    73063   93.69%
Elapsed time = 112.03 sec. (18053.83 ticks, tree = 24.35 MB, solutions = 1)
    529   464        0.7000   188       11.1000        0.7000    95675   93.69%
    644   569        0.7000   224       11.1000        0.7000   116203   93.69%
    766   664        0.7000   158       11.1000        0.7000   134148   93.69%
    868   759        0.7000   201       11.1000        0.7000   153015   93.69%
    989   839        2.7000   148       11.1000        0.7000   177192   93.69%
                                                    Covers: 7                  
   1079   935        0.7000   220       11.1000        0.7000   209483   93.69%
                                                     Cuts: 24                  
   1180  1002        0.7000   216       11.1000        0.7000   227164   93.69%
                                                    Covers: 7                  
   1297  1079        0.7000   188       11.1000        0.7000   245864   93.69%
                                                    Covers: 7                  
   1435  1212        0.7000   188       11.1000        0.7000   273280   93.69%
                                                    Covers: 7                  
   1547  1277    infeasible             11.1000        0.7000   294831   93.69%
                                                    Covers: 8                  
Elapsed time = 190.55 sec. (27681.17 ticks, tree = 121.12 MB, solutions = 1)
   1624  1361        0.7000   221       11.1000        0.7000   315505   93.69%
                                                   Covers: 15                  
   1671  1429        cutoff             11.1000        0.7000   346939   93.69%
   1756  1456        0.7000   222       11.1000        0.7000   349422   93.69%
                                                   Covers: 13                  
   1834  1505        0.7000   195       11.1000        0.7000   379066   93.69%
                                                   Covers: 11                  
   1949  1590        0.7000   196       11.1000        0.7000   405742   93.69%
                                                   Covers: 18                  
   2034  1646        1.2000   176       11.1000        0.7000   422974   93.69%
                                                    Covers: 8                  
   2110  1741        1.9000   150       11.1000        0.7000   446486   93.69%
                                                   Covers: 20                  
   2164  1782        0.7000   208       11.1000        0.7000   461395   93.69%
                                                   Covers: 21                  
   2245  1833        0.7167   209       11.1000        0.7000   496563   93.69%
                                                   Covers: 14                  
   2292  1873        1.7800   151       11.1000        0.7000   513651   93.69%
                                                   Covers: 13                  
Elapsed time = 271.91 sec. (37305.34 ticks, tree = 186.13 MB, solutions = 1)
   2366  1923        7.5000   117       11.1000        0.7000   536745   93.69%
                                                   Covers: 23                  
   2446  1962        5.0000   119       11.1000        0.7000   551991   93.69%
                                                    Covers: 4                  
   2531  2034        1.0000   187       11.1000        0.7000   597988   93.69%
                                                    Covers: 2                  
   2618  2089        0.9000   198       11.1000        0.7000   611133   93.69%
                                                     Cuts: 22                  
   2718  2171        1.8000   130       11.1000        0.7000   648981   93.69%
                                                    Covers: 9                  
   2805  2210        1.1323   142       11.1000        0.7000   664567   93.69%
                                                   Covers: 18                  
   2932  2289        2.0000   171       11.1000        0.7000   680141   93.69%
                                                    Covers: 4                  
   3026  2332        2.2000   217       11.1000        0.7000   697618   93.69%
                                                   Covers: 16                  
   3112  2513        1.7000   201       11.1000        0.7000   745776   93.69%
                                                   Covers: 10                  
   3201  2535        0.7000   193       11.1000        0.7000   752599   93.69%
                                                    Covers: 9                  
Elapsed time = 356.89 sec. (46973.52 ticks, tree = 260.53 MB, solutions = 1)
   3262  2610        9.5000    73       11.1000        0.7000   785511   93.69%
                                                   Covers: 20                  
   3304  2625        5.2000   164       11.1000        0.7000   791502   93.69%
                                                   Covers: 28                  
   3349  2690        5.0000   141       11.1000        0.7000   817188   93.69%
                                                    Covers: 4                  
   3402  2696        2.5000   198       11.1000        0.7000   829791   93.69%
                                                   Covers: 12                  
   3443  2745        0.7000   242       11.1000        0.7000   840161   93.69%
                                                    Covers: 7                  
   3491  2784        2.5000   209       11.1000        0.7000   861575   93.69%
                                                    Covers: 7                  
   3551  2817        1.2000   195       11.1000        0.7000   873759   93.69%
                                                   Covers: 11                  
   3616  2868        2.8000   191       11.1000        0.7000   881090   93.69%
   3740  2906        0.9000   144       11.1000        0.7000   901303   93.69%
                                                    Covers: 6                  
   3852  3057        0.9000   231       11.1000        0.7000   924373   93.69%
Elapsed time = 420.81 sec. (56727.80 ticks, tree = 318.18 MB, solutions = 1)
   3945  3066        0.7000   257       11.1000        0.7000   924506   93.69%
                                                   Covers: 17                  
   4026  3073        0.7000   252       11.1000        0.7000   925797   93.69%
   4109  3219        0.9000   226       11.1000        0.7000   967324   93.69%
                                                    Covers: 2                  
   4167  3282        0.7000   215       11.1000        0.7000   997840   93.69%
                                                   Covers: 13                  
   4252  3342        3.3000   205       11.1000        0.7000  1014785   93.69%
                                                    Covers: 9                  
   4305  3383    infeasible             11.1000        0.7000  1037343   93.69%
                                                    Covers: 8                  
   4338  3383        cutoff             11.1000        0.7000  1041848   93.69%
                                                    Covers: 5                  

Performing restart 1

Repeating presolve.
Tried aggregator 1 time.
Reduced MIP has 14002 rows, 14364 columns, and 56616 nonzeros.
Reduced MIP has 896 binaries, 0 generals, 0 SOSs, and 0 indicators.
Presolve time = 0.11 sec. (24.31 ticks)
Tried aggregator 1 time.
Reduced MIP has 14002 rows, 14364 columns, and 56616 nonzeros.
Reduced MIP has 896 binaries, 0 generals, 0 SOSs, and 0 indicators.
Presolve time = 0.13 sec. (41.46 ticks)
Represolve time = 0.95 sec. (84.63 ticks)
Initializing dual steep norms . . .

Iteration log . . .
Iteration:     1   Dual objective     =             0.000000
Perturbation started.
Iteration:   101   Dual objective     =             0.000000
Iteration:   376   Dual objective     =             0.000019
Iteration:   564   Dual objective     =             0.000027
Iteration:   789   Dual objective     =             0.700031
Removing perturbation.
   4340     2        0.7000   127       11.1000        0.7000  1084298   93.69%
   4341     3        0.7000   218       11.1000        0.7000  1091933   93.69%
   4342     4        0.7000   287       11.1000        0.7000  1094846   93.69%
Elapsed time = 532.49 sec. (74608.41 ticks, tree = 0.02 MB, solutions = 1)
   4343     5        0.7000   286       11.1000        0.7000  1096952   93.69%
   4346     7        0.7000   252       11.1000        0.7000  1098080   93.69%
   4352    11        0.7000   184       11.1000        0.7000  1100067   93.69%
   4358    16        0.7000   205       11.1000        0.7000  1100697   93.69%
   4371    22        0.7000   181       11.1000        0.7000  1102621   93.69%
   4397    42        0.7000   197       11.1000        0.7000  1105100   93.69%
   4445    77        0.7000   218       11.1000        0.7000  1113348   93.69%
   4554   111        0.7000   304       11.1000        0.7000  1127406   93.69%
   4705   236        0.7000   234       11.1000        0.7000  1150657   93.69%
   4899   313        0.7000   210       11.1000        0.7000  1165696   93.69%
Elapsed time = 585.44 sec. (84848.80 ticks, tree = 21.06 MB, solutions = 1)
   5077   484        4.4000   175       11.1000        0.7000  1192084   93.69%
                                                    Covers: 3                  
   5285   688        4.8667   199       11.1000        0.7000  1223915   93.69%
   5440   856        1.9000   178       11.1000        0.7000  1253070   93.69%
   5624  1030        0.7000   249       11.1000        0.7000  1275885   93.69%
   5915  1114    infeasible             11.1000        0.7000  1287615   93.69%
   6231  1380        0.7000   224       11.1000        0.7000  1315058   93.69%
                                                   Covers: 10                  
   6579  1727        3.5000   209       11.1000        0.7000  1355851   93.69%
                                                    Covers: 8                  
   6711  1889        0.7000   244       11.1000        0.7000  1370727   93.69%
   6888  1992    infeasible             11.1000        0.7000  1384667   93.69%
   7099  2155        5.9000   200       11.1000        0.7000  1402663   93.69%
                                                     Cuts: 21                  
Elapsed time = 653.74 sec. (94432.65 ticks, tree = 219.51 MB, solutions = 1)
   7236  2313        4.5000   221       11.1000        0.7000  1422043   93.69%
                                                      Cuts: 2                  
   7387  2453        4.5000   169       11.1000        0.7000  1442214   93.69%
                                                     Cuts: 21                  
   7570  2544        3.8000   183       11.1000        0.7000  1452893   93.69%
   7752  2662        8.6429   105       11.1000        0.7000  1469995   93.69%
   8063  2903        1.9000   211       11.1000        0.7000  1493666   93.69%
   8487  3029        0.8000   273       11.1000        0.7000  1510243   93.69%
   8866  3484        0.7000   238       11.1000        0.7000  1551448   93.69%
                                                      Cuts: 4                  
   9088  3679        1.0000   182       11.1000        0.7000  1568263   93.69%
   9184  3973        0.7000   212       11.1000        0.7000  1603253   93.69%
                                                      Cuts: 5                  
   9425  4056        5.3000   217       11.1000        0.7000  1617307   93.69%
Elapsed time = 720.95 sec. (104048.28 ticks, tree = 429.42 MB, solutions = 1)
   9767  4286       10.7000   159       11.1000        0.7000  1648673   93.69%
                                                      Cuts: 7                  
  10102  4540        5.7000   117       11.1000        0.7000  1671721   93.69%
                                                     Cuts: 18                  
  10397  4861        cutoff             11.1000        0.7000  1704433   93.69%
                                                      Cuts: 2                  
  10649  4967        6.3000   155       11.1000        0.7000  1716779   93.69%
                                                      Cuts: 5                  
  10989  5263        7.0000   138       11.1000        0.7000  1754849   93.69%
  11302  5559        3.6000   209       11.1000        0.7000  1787217   93.69%
                                                   GUBcuts: 1                  
  11475  5807        0.7000   270       11.1000        0.7000  1814209   93.69%
                                                    Covers: 7                  
  11771  6013        2.9727   239       11.1000        0.7000  1835122   93.69%
                                                    Covers: 2                  
  12036  6190        3.1000   215       11.1000        0.7000  1850201   93.69%
                                                     Cuts: 42                  
  13082  6877        2.3000   239       11.1000        0.7000  1934784   93.69%
                                                     Cuts: 73                  
Elapsed time = 816.03 sec. (116476.47 ticks, tree = 742.02 MB, solutions = 1)
  14115  7833    infeasible             11.1000        0.7000  2052508   93.69%
                                                     Cuts: 11                  
  14989  8474        0.7000   234       11.1000        0.7000  2123905   93.69%
                                                     Cuts: 21                  
Starting limited solution polishing.
  15457  8886        2.8000   290       11.1000        0.7000  2168374   93.69%
                                                    Covers: 7                  
  16547  9811        9.3000   182       11.1000        0.7000  2282705   93.69%
                                                    Covers: 1                  
* 17127+10200                           10.9000        0.7000            93.58%
                                                    Covers: 1                  
Found incumbent of value 10.900000 after 977.56 sec. (133939.00 ticks)
* 17127+10200                           10.7000        0.7000            93.46%
Found incumbent of value 10.700000 after 977.56 sec. (133949.42 ticks)
  17590 10206        5.3000   109       10.7000        0.7000  2361326   93.46%
                                                     Cuts: 17                  
* 17664+10373                           10.5000        0.7000            93.33%
Found incumbent of value 10.500000 after 994.50 sec. (135865.47 ticks)

GUB cover cuts applied:  12
Cover cuts applied:  148
Flow cuts applied:  2
Mixed integer rounding cuts applied:  124
Zero-half cuts applied:  11
Gomory fractional cuts applied:  3

Root node processing (before b&c):
  Real time             =   88.63 sec. (14775.58 ticks)
Parallel b&c, 8 threads:
  Real time             =  913.31 sec. (122488.90 ticks)
  Sync time (average)   =  151.95 sec.
  Wait time (average)   =    0.04 sec.
                          ------------
Total (root+branch&cut) = 1001.94 sec. (137264.48 ticks)

--- MIP status (107): time limit exceeded.
--- Cplex Time: 1002.00sec (det. 137264.52 ticks)

--- Fixing integer variables and solving final LP...

Version identifier: 20.1.0.0 | 2020-11-10 | 9bedb6d68
CPXPARAM_Advance                                 2
CPXPARAM_Threads                                 8
CPXPARAM_Parallel                                1
CPXPARAM_MIP_Display                             4
CPXPARAM_TimeLimit                               1000
CPXPARAM_MIP_Tolerances_AbsMIPGap                0
CPXPARAM_MIP_Tolerances_MIPGap                   0
Parallel mode: deterministic, using up to 8 threads for concurrent optimization:
 * Starting dual Simplex on 1 thread...
 * Starting Barrier on 6 threads...
 * Starting primal Simplex on 1 thread...
Tried aggregator 1 time.
LP Presolve eliminated 13876 rows and 14365 columns.
All rows and columns eliminated.
Presolve time = 0.56 sec. (8.73 ticks)

Dual simplex solved model.


--- Fixed MIP status (1): optimal.
--- Cplex Time: 1.70sec (det. 14.11 ticks)


Resource limit exceeded
MIP Solution:           10.500000    (2420524 iterations, 17804 nodes)
Final Solve:            10.500000    (0 iterations)

Best possible:           0.700000
Absolute gap:            9.800000
Relative gap:            0.933333

--- Reading solution for model sched
--- sportsSchedule1.gms(104) 12 Mb  1017 secs
*** Status: Normal completion
--- Job sportsSchedule1.gms Stop 07/04/21 16:56:15 elapsed 0:16:58.198
